285 354
111 94 122 81 113 162 119 125 87 75 131 103 174 88 73 114 76 57 174 61 159 167 78 73 112 167 123 120 125 66 92 79 110 86 130 150 178 138 139 99 94 128 85 154 120
157 159 135 86 196 141 160 152 137 214 125 120 146 201 220 109 80 100 128 190 96 84 165 99 130 87 210 209 141 182 78 165 94 99 102 193 109 187 197 79 112 133 115 210 206
17427 14946 16470 6966 22148 22842 19040 19000 11919 16050 16375 12360 25404 17688 16060 12426 6080 5700 22272 11590 15264 14028 12870 7227 14560 14529 25830 25080 17625 12012 7176 13035 10340 8514 13260 28950 19402 25806 27383 7821 10528 17024 9775 32340 24720